p edge 70 1219
e 1 2
e 1 4
e 1 7
e 1 9
e 1 13
e 1 16
e 1 23
e 1 29
e 1 31
e 1 32
e 1 33
e 1 39
e 1 40
e 1 43
e 1 44
e 1 46
e 1 47
e 1 53
e 1 54
e 1 59
e 1 61
e 1 64
e 1 65
e 1 66
e 1 67
e 1 70
e 2 3
e 2 4
e 2 5
e 2 6
e 2 7
e 2 9
e 2 12
e 2 18
e 2 19
e 2 22
e 2 23
e 2 25
e 2 28
e 2 30
e 2 36
e 2 39
e 2 41
e 2 44
e 2 46
e 2 49
e 2 51
e 2 52
e 2 53
e 2 54
e 2 58
e 2 59
e 2 60
e 2 61
e 2 65
e 2 66
e 3 4
e 3 8
e 3 10
e 3 11
e 3 12
e 3 14
e 3 15
e 3 17
e 3 21
e 3 23
e 3 31
e 3 36
e 3 37
e 3 39
e 3 45
e 3 46
e 3 47
e 3 49
e 3 53
e 3 57
e 3 59
e 3 60
e 3 62
e 3 64
e 3 65
e 3 66
e 3 67
e 3 70
e 4 5
e 4 6
e 4 7
e 4 8
e 4 10
e 4 11
e 4 14
e 4 15
e 4 16
e 4 18
e 4 22
e 4 23
e 4 25
e 4 27
e 4 31
e 4 32
e 4 33
e 4 36
e 4 38
e 4 39
e 4 42
e 4 43
e 4 44
e 4 45
e 4 46
e 4 49
e 4 50
e 4 51
e 4 53
e 4 54
e 4 58
e 4 59
e 4 60
e 4 61
e 4 63
e 4 64
e 4 69
e 4 70
e 5 8
e 5 9
e 5 11
e 5 16
e 5 18
e 5 21
e 5 22
e 5 23
e 5 25
e 5 26
e 5 27
e 5 29
e 5 31
e 5 33
e 5 34
e 5 36
e 5 37
e 5 38
e 5 39
e 5 42
e 5 43
e 5 47
e 5 48
e 5 49
e 5 50
e 5 53
e 5 54
e 5 57
e 5 61
e 5 62
e 5 63
e 5 64
e 5 65
e 6 7
e 6 8
e 6 10
e 6 11
e 6 14
e 6 15
e 6 19
e 6 20
e 6 21
e 6 24
e 6 29
e 6 31
e 6 32
e 6 33
e 6 34
e 6 35
e 6 37
e 6 38
e 6 40
e 6 42
e 6 43
e 6 46
e 6 48
e 6 52
e 6 53
e 6 54
e 6 55
e 6 56
e 6 61
e 6 63
e 6 64
e 6 65
e 6 66
e 6 68
e 6 69
e 6 70
e 7 8
e 7 11
e 7 14
e 7 16
e 7 17
e 7 20
e 7 25
e 7 27
e 7 28
e 7 31
e 7 33
e 7 34
e 7 36
e 7 38
e 7 39
e 7 42
e 7 45
e 7 48
e 7 49
e 7 51
e 7 52
e 7 53
e 7 54
e 7 55
e 7 59
e 7 60
e 7 62
e 7 64
e 7 65
e 7 67
e 7 68
e 7 69
e 7 70
e 8 9
e 8 10
e 8 11
e 8 12
e 8 13
e 8 14
e 8 15
e 8 17
e 8 18
e 8 19
e 8 20
e 8 22
e 8 23
e 8 25
e 8 27
e 8 28
e 8 30
e 8 31
e 8 33
e 8 35
e 8 36
e 8 38
e 8 42
e 8 43
e 8 44
e 8 46
e 8 48
e 8 51
e 8 53
e 8 54
e 8 57
e 8 58
e 8 59
e 8 60
e 8 61
e 8 63
e 8 64
e 8 67
e 8 68
e 8 70
e 9 11
e 9 12
e 9 13
e 9 14
e 9 17
e 9 20
e 9 21
e 9 23
e 9 24
e 9 25
e 9 27
e 9 34
e 9 37
e 9 38
e 9 40
e 9 41
e 9 42
e 9 45
e 9 46
e 9 47
e 9 50
e 9 51
e 9 53
e 9 54
e 9 55
e 9 59
e 9 61
e 9 62
e 9 69
e 10 13
e 10 14
e 10 15
e 10 17
e 10 18
e 10 22
e 10 23
e 10 24
e 10 26
e 10 28
e 10 31
e 10 35
e 10 36
e 10 43
e 10 47
e 10 55
e 10 56
e 10 57
e 10 59
e 10 61
e 10 62
e 10 63
e 10 68
e 10 69
e 10 70
e 11 16
e 11 17
e 11 20
e 11 23
e 11 25
e 11 26
e 11 27
e 11 28
e 11 29
e 11 30
e 11 31
e 11 32
e 11 33
e 11 36
e 11 37
e 11 41
e 11 45
e 11 46
e 11 47
e 11 48
e 11 50
e 11 52
e 11 53
e 11 57
e 11 59
e 11 61
e 11 67
e 12 13
e 12 15
e 12 18
e 12 21
e 12 24
e 12 27
e 12 31
e 12 32
e 12 35
e 12 36
e 12 38
e 12 39
e 12 40
e 12 41
e 12 42
e 12 45
e 12 46
e 12 48
e 12 49
e 12 52
e 12 53
e 12 54
e 12 56
e 12 57
e 12 59
e 12 60
e 12 62
e 12 63
e 12 66
e 12 67
e 12 70
e 13 14
e 13 15
e 13 16
e 13 17
e 13 21
e 13 22
e 13 25
e 13 28
e 13 30
e 13 31
e 13 36
e 13 44
e 13 45
e 13 46
e 13 48
e 13 52
e 13 54
e 13 56
e 13 57
e 13 58
e 13 59
e 13 60
e 13 63
e 13 65
e 13 66
e 13 67
e 14 15
e 14 20
e 14 21
e 14 23
e 14 26
e 14 27
e 14 28
e 14 31
e 14 32
e 14 36
e 14 37
e 14 38
e 14 42
e 14 47
e 14 49
e 14 50
e 14 53
e 14 54
e 14 56
e 14 58
e 14 59
e 14 61
e 14 62
e 14 63
e 14 66
e 14 68
e 14 69
e 15 16
e 15 17
e 15 18
e 15 21
e 15 22
e 15 25
e 15 29
e 15 30
e 15 31
e 15 34
e 15 35
e 15 38
e 15 40
e 15 44
e 15 48
e 15 49
e 15 51
e 15 55
e 15 56
e 15 57
e 15 64
e 15 70
e 16 18
e 16 22
e 16 24
e 16 26
e 16 27
e 16 30
e 16 31
e 16 35
e 16 36
e 16 39
e 16 43
e 16 44
e 16 45
e 16 47
e 16 49
e 16 51
e 16 52
e 16 56
e 16 57
e 16 59
e 16 62
e 16 63
e 16 65
e 16 66
e 16 68
e 16 69
e 17 18
e 17 19
e 17 20
e 17 21
e 17 29
e 17 32
e 17 33
e 17 34
e 17 38
e 17 39
e 17 40
e 17 41
e 17 43
e 17 45
e 17 46
e 17 47
e 17 49
e 17 50
e 17 51
e 17 52
e 17 54
e 17 63
e 17 64
e 17 65
e 17 68
e 17 69
e 18 19
e 18 20
e 18 22
e 18 23
e 18 27
e 18 30
e 18 33
e 18 34
e 18 36
e 18 37
e 18 38
e 18 39
e 18 40
e 18 41
e 18 42
e 18 46
e 18 49
e 18 52
e 18 53
e 18 54
e 18 56
e 18 57
e 18 59
e 18 60
e 18 62
e 18 63
e 18 67
e 18 69
e 19 20
e 19 21
e 19 23
e 19 25
e 19 29
e 19 32
e 19 33
e 19 35
e 19 38
e 19 39
e 19 42
e 19 45
e 19 47
e 19 50
e 19 55
e 19 60
e 19 62
e 19 63
e 19 64
e 19 66
e 19 67
e 19 68
e 19 69
e 19 70
e 20 24
e 20 25
e 20 26
e 20 28
e 20 29
e 20 30
e 20 32
e 20 34
e 20 39
e 20 43
e 20 45
e 20 51
e 20 52
e 20 53
e 20 55
e 20 56
e 20 58
e 20 59
e 20 60
e 20 61
e 20 62
e 20 63
e 20 64
e 20 65
e 20 67
e 20 68
e 20 69
e 21 22
e 21 24
e 21 26
e 21 29
e 21 31
e 21 32
e 21 33
e 21 34
e 21 35
e 21 36
e 21 37
e 21 41
e 21 43
e 21 44
e 21 47
e 21 50
e 21 53
e 21 54
e 21 55
e 21 57
e 21 58
e 21 61
e 21 63
e 21 64
e 21 66
e 21 69
e 21 70
e 22 23
e 22 25
e 22 26
e 22 27
e 22 28
e 22 31
e 22 33
e 22 34
e 22 36
e 22 40
e 22 41
e 22 42
e 22 44
e 22 46
e 22 48
e 22 51
e 22 52
e 22 53
e 22 54
e 22 56
e 22 60
e 22 61
e 22 62
e 22 68
e 22 69
e 23 24
e 23 27
e 23 28
e 23 31
e 23 33
e 23 36
e 23 43
e 23 44
e 23 46
e 23 49
e 23 50
e 23 51
e 23 57
e 23 59
e 23 60
e 23 64
e 23 65
e 23 66
e 23 69
e 23 70
e 24 26
e 24 27
e 24 28
e 24 32
e 24 33
e 24 36
e 24 37
e 24 38
e 24 40
e 24 41
e 24 42
e 24 43
e 24 44
e 24 46
e 24 48
e 24 49
e 24 51
e 24 53
e 24 60
e 24 64
e 24 66
e 24 68
e 24 70
e 25 27
e 25 29
e 25 30
e 25 32
e 25 35
e 25 37
e 25 40
e 25 41
e 25 42
e 25 44
e 25 47
e 25 48
e 25 49
e 25 54
e 25 56
e 25 57
e 25 58
e 25 60
e 25 62
e 25 63
e 25 65
e 25 66
e 25 68
e 25 70
e 26 27
e 26 31
e 26 34
e 26 35
e 26 40
e 26 45
e 26 46
e 26 49
e 26 50
e 26 52
e 26 53
e 26 54
e 26 55
e 26 56
e 26 59
e 26 65
e 26 67
e 26 68
e 26 69
e 27 28
e 27 29
e 27 30
e 27 31
e 27 32
e 27 34
e 27 35
e 27 37
e 27 43
e 27 45
e 27 47
e 27 48
e 27 50
e 27 54
e 27 58
e 27 59
e 27 60
e 27 61
e 27 62
e 27 65
e 27 66
e 27 67
e 27 68
e 28 29
e 28 30
e 28 31
e 28 36
e 28 37
e 28 39
e 28 41
e 28 43
e 28 44
e 28 45
e 28 46
e 28 50
e 28 52
e 28 53
e 28 56
e 28 57
e 28 62
e 28 63
e 28 65
e 28 69
e 28 70
e 29 30
e 29 36
e 29 37
e 29 38
e 29 39
e 29 40
e 29 43
e 29 46
e 29 47
e 29 53
e 29 58
e 29 59
e 29 62
e 29 63
e 30 31
e 30 32
e 30 33
e 30 34
e 30 35
e 30 36
e 30 37
e 30 39
e 30 41
e 30 44
e 30 46
e 30 47
e 30 49
e 30 50
e 30 52
e 30 54
e 30 55
e 30 57
e 30 59
e 30 61
e 30 62
e 31 32
e 31 34
e 31 35
e 31 36
e 31 37
e 31 38
e 31 40
e 31 41
e 31 42
e 31 43
e 31 45
e 31 48
e 31 49
e 31 51
e 31 52
e 31 53
e 31 54
e 31 59
e 31 60
e 31 63
e 31 67
e 31 69
e 31 70
e 32 37
e 32 38
e 32 40
e 32 43
e 32 46
e 32 47
e 32 48
e 32 49
e 32 50
e 32 51
e 32 54
e 32 55
e 32 56
e 32 57
e 32 59
e 32 60
e 32 61
e 32 63
e 32 69
e 32 70
e 33 37
e 33 38
e 33 39
e 33 43
e 33 44
e 33 47
e 33 49
e 33 50
e 33 51
e 33 53
e 33 54
e 33 56
e 33 59
e 33 60
e 33 62
e 33 65
e 33 67
e 33 68
e 33 69
e 34 35
e 34 43
e 34 44
e 34 46
e 34 47
e 34 48
e 34 50
e 34 53
e 34 55
e 34 57
e 34 58
e 34 60
e 34 61
e 34 63
e 34 67
e 35 37
e 35 40
e 35 41
e 35 43
e 35 48
e 35 50
e 35 52
e 35 55
e 35 58
e 35 59
e 35 61
e 35 63
e 35 64
e 35 68
e 36 39
e 36 40
e 36 42
e 36 43
e 36 45
e 36 46
e 36 48
e 36 50
e 36 52
e 36 53
e 36 59
e 36 60
e 36 62
e 36 63
e 36 64
e 36 65
e 36 67
e 36 69
e 36 70
e 37 39
e 37 40
e 37 44
e 37 45
e 37 52
e 37 54
e 37 56
e 37 57
e 37 58
e 37 59
e 37 66
e 38 39
e 38 40
e 38 42
e 38 43
e 38 44
e 38 45
e 38 46
e 38 47
e 38 49
e 38 51
e 38 52
e 38 53
e 38 54
e 38 55
e 38 57
e 38 58
e 38 59
e 38 60
e 38 61
e 38 65
e 38 66
e 38 69
e 39 40
e 39 41
e 39 45
e 39 46
e 39 50
e 39 51
e 39 52
e 39 53
e 39 55
e 39 56
e 39 57
e 39 58
e 39 61
e 39 63
e 39 64
e 39 65
e 39 66
e 39 67
e 40 41
e 40 42
e 40 46
e 40 47
e 40 48
e 40 52
e 40 53
e 40 56
e 40 57
e 40 58
e 40 59
e 40 60
e 40 61
e 40 62
e 40 63
e 40 64
e 40 65
e 40 67
e 40 68
e 40 69
e 40 70
e 41 43
e 41 45
e 41 46
e 41 50
e 41 53
e 41 54
e 41 55
e 41 56
e 41 60
e 41 62
e 41 63
e 41 68
e 41 69
e 42 43
e 42 45
e 42 47
e 42 48
e 42 49
e 42 54
e 42 55
e 42 57
e 42 58
e 42 60
e 42 61
e 42 63
e 42 64
e 42 65
e 42 66
e 42 67
e 42 69
e 43 46
e 43 47
e 43 49
e 43 50
e 43 52
e 43 53
e 43 54
e 43 56
e 43 57
e 43 61
e 43 65
e 43 66
e 43 67
e 43 69
e 43 70
e 44 46
e 44 48
e 44 51
e 44 54
e 44 57
e 44 61
e 44 63
e 44 64
e 44 67
e 44 68
e 45 46
e 45 47
e 45 50
e 45 52
e 45 54
e 45 58
e 45 59
e 45 60
e 45 63
e 45 64
e 45 65
e 45 69
e 45 70
e 46 47
e 46 48
e 46 51
e 46 52
e 46 55
e 46 56
e 46 58
e 46 59
e 46 60
e 46 63
e 46 67
e 47 48
e 47 49
e 47 51
e 47 53
e 47 54
e 47 56
e 47 57
e 47 58
e 47 59
e 47 60
e 47 66
e 47 67
e 47 68
e 47 70
e 48 49
e 48 51
e 48 52
e 48 54
e 48 56
e 48 57
e 48 58
e 48 61
e 48 68
e 48 70
e 49 50
e 49 53
e 49 55
e 49 56
e 49 59
e 49 62
e 49 66
e 49 68
e 49 70
e 50 51
e 50 52
e 50 55
e 50 56
e 50 57
e 50 59
e 50 60
e 50 62
e 50 65
e 50 68
e 50 69
e 51 52
e 51 53
e 51 55
e 51 56
e 51 57
e 51 58
e 51 59
e 51 60
e 51 61
e 51 63
e 51 65
e 51 67
e 51 68
e 52 54
e 52 56
e 52 58
e 52 60
e 52 62
e 52 63
e 52 65
e 52 66
e 52 70
e 53 54
e 53 55
e 53 58
e 53 59
e 53 64
e 53 65
e 53 66
e 53 67
e 53 68
e 54 55
e 54 57
e 54 58
e 54 59
e 54 61
e 54 62
e 54 63
e 54 64
e 54 66
e 54 67
e 54 70
e 55 57
e 55 58
e 55 59
e 55 60
e 55 61
e 55 62
e 55 67
e 55 68
e 55 69
e 55 70
e 56 57
e 56 58
e 56 59
e 56 61
e 56 62
e 56 67
e 56 68
e 57 58
e 57 60
e 57 61
e 57 62
e 57 64
e 57 65
e 57 66
e 57 69
e 57 70
e 58 60
e 58 61
e 58 62
e 58 63
e 58 64
e 58 65
e 58 68
e 58 69
e 58 70
e 59 60
e 59 61
e 59 62
e 59 66
e 59 67
e 59 69
e 60 62
e 60 64
e 60 65
e 60 67
e 60 68
e 60 69
e 60 70
e 61 62
e 61 64
e 61 67
e 61 68
e 61 69
e 62 63
e 62 64
e 62 65
e 62 69
e 62 70
e 63 64
e 63 66
e 63 69
e 64 65
e 64 66
e 64 68
e 64 69
e 64 70
e 65 67
e 65 68
e 65 69
e 65 70
e 67 68
e 68 69
e 68 70